Crypto/instances/samples/hf_n23/hf_n23_cnf07.sol
c DPLL-like Solver for max-min SAT
f file hf_n23_cnf07.cnf
p cnf 23 102
s max  102 14 15 16 -13 7 -6 5 8 2 -1 3 -22 17 -18 -4 -9 -12 10 -11 -23 -19 -21 -20
s min  85 -14 -15 -16 -13 -7 6 -5 8 2 -1 3 -22 -17 -18 4 9 12 -10 -11 -23 19 -21 20